c einstein-puzzle-new.cnf
c Let nationality be prefixes
c Brit = B, Swede = S, Dane = D, Norwegian = N, German = G
c Houses
c Red = 1, Green = 2, White = 3, Yellow = 4, Blue = 5
c Animals
c Dog = 6, Birds = 7, Cats = 8, Horse = 9, Fish = 10 ???
c Drinks
c Tea = 11, Coffee = 12, Milk = 13, Beer = 14, Water = 15
c Cigarettes
c Pall Mall = 16, Dunhill = 17, Blends = 18, Bluemasters = 19, Prince = 20
c House positions
c First = 21, Second = 22, Third = 23, Fourth = 24, Fifth = 25
p cnf 125 1050
c The Brits lives in the red house (1)
B1 0
c The Swede keeps dogs as pets (1)
S6 0
c The Dane drinks tea (1)
D11 0
c The green house is on the left of the white house (80)
-B21 -B2 -S22 S3 0
-B22 -B2 -S23 S3 0
-B23 -B2 -S24 S3 0
-B24 -B2 -S25 S3 0
-B21 -B2 -D22 D3 0
-B22 -B2 -D23 D3 0
-B23 -B2 -D24 D3 0
-B24 -B2 -D25 D3 0
-B21 -B2 -N22 N3 0
-B22 -B2 -N23 N3 0
-B23 -B2 -N24 N3 0
-B24 -B2 -N25 N3 0
-B21 -B2 -G22 G3 0
-B22 -B2 -G23 G3 0
-B23 -B2 -G24 G3 0
-B24 -B2 -G25 G3 0
-S21 -S2 -B22 B3 0
-S22 -S2 -B23 B3 0
-S23 -S2 -B24 B3 0
-S24 -S2 -B25 B3 0
-S21 -S2 -D22 D3 0
-S22 -S2 -D23 D3 0
-S23 -S2 -D24 D3 0
-S24 -S2 -D25 D3 0
-S21 -S2 -N22 N3 0
-S22 -S2 -N23 N3 0
-S23 -S2 -N24 N3 0
-S24 -S2 -N25 N3 0
-S21 -S2 -G22 G3 0
-S22 -S2 -G23 G3 0
-S23 -S2 -G24 G3 0
-S24 -S2 -G25 G3 0
-D21 -D2 -S22 S3 0
-D22 -D2 -S23 S3 0
-D23 -D2 -S24 S3 0
-D24 -D2 -S25 S3 0
-D21 -D2 -B22 B3 0
-D22 -D2 -B23 B3 0
-D23 -D2 -B24 B3 0
-D24 -D2 -B25 B3 0
-D21 -D2 -N22 N3 0
-D22 -D2 -N23 N3 0
-D23 -D2 -N24 N3 0
-D24 -D2 -N25 N3 0
-D21 -D2 -G22 G3 0
-D22 -D2 -G23 G3 0
-D23 -D2 -G24 G3 0
-D24 -D2 -G25 G3 0
-N21 -N2 -S22 S3 0
-N22 -N2 -S23 S3 0
-N23 -N2 -S24 S3 0
-N24 -N2 -S25 S3 0
-N21 -N2 -D22 D3 0
-N22 -N2 -D23 D3 0
-N23 -N2 -D24 D3 0
-N24 -N2 -D25 D3 0
-N21 -N2 -B22 B3 0
-N22 -N2 -B23 B3 0
-N23 -N2 -B24 B3 0
-N24 -N2 -B25 B3 0
-N21 -N2 -G22 G3 0
-N22 -N2 -G23 G3 0
-N23 -N2 -G24 G3 0
-N24 -N2 -G25 G3 0
-G21 -G2 -S22 S3 0
-G22 -G2 -S23 S3 0
-G23 -G2 -S24 S3 0
-G24 -G2 -S25 S3 0
-G21 -G2 -D22 D3 0
-G22 -G2 -D23 D3 0
-G23 -G2 -D24 D3 0
-G24 -G2 -D25 D3 0
-G21 -G2 -N22 N3 0
-G22 -G2 -N23 N3 0
-G23 -G2 -N24 N3 0
-G24 -G2 -N25 N3 0
-G21 -G2 -B22 B3 0
-G22 -G2 -B23 B3 0
-G23 -G2 -B24 B3 0
-G24 -G2 -B25 B3 0
c The green house's owner drinks coffee (5)
-B2 B12 0
-S2 S12 0
-D2 D12 0
-N2 N12 0
-G2 G12 0
c The person who smokes Pall Mall rears birds (5)
-B16 B7 0
-S16 S7 0
-D16 D7 0
-N16 N7 0
-G16 G7 0
c The owner of the yellow house smokes Dunhill (5)
-B4 B17 0
-S4 S17 0
-D4 D17 0
-N4 N17 0
-G4 G17 0
c The man living in the center house drinks milk (5)
-B23 B13 0
-S23 S13 0
-D23 D13 0
-N23 N13 0
-G23 G13 0
c The Norwegian lives in the first house (1)
N21 0
c The man who smokes Blends lives next to the one who keeps cats (160)
-B21 -B18 -S22 S8 0
-B22 -B18 -S23 S8 0
-B22 -B18 -S21 S8 0
-B23 -B18 -S22 S8 0
-B23 -B18 -S24 S8 0
-B24 -B18 -S23 S8 0
-B24 -B18 -S25 S8 0
-B25 -B18 -S24 S8 0
-B21 -B18 -D22 D8 0
-B22 -B18 -D23 D8 0
-B22 -B18 -D21 D8 0
-B23 -B18 -D22 D8 0
-B23 -B18 -D24 D8 0
-B24 -B18 -D23 D8 0
-B24 -B18 -D25 D8 0
-B25 -B18 -D24 D8 0
-B21 -B18 -N22 N8 0
-B22 -B18 -N23 N8 0
-B22 -B18 -N21 N8 0
-B23 -B18 -N22 N8 0
-B23 -B18 -N24 N8 0
-B24 -B18 -N23 N8 0
-B24 -B18 -N25 N8 0
-B25 -B18 -N24 N8 0
-B21 -B18 -G22 G8 0
-B22 -B18 -G23 G8 0
-B22 -B18 -G21 G8 0
-B23 -B18 -G22 G8 0
-B23 -B18 -G24 G8 0
-B24 -B18 -G23 G8 0
-B24 -B18 -G25 G8 0
-B25 -B18 -G24 G8 0
-S21 -S18 -B22 B8 0
-S22 -S18 -B23 B8 0
-S22 -S18 -B21 B8 0
-S23 -S18 -B22 B8 0
-S23 -S18 -B24 B8 0
-S24 -S18 -B23 B8 0
-S24 -S18 -B25 B8 0
-S25 -S18 -B24 B8 0
-S21 -S18 -D22 D8 0
-S22 -S18 -D23 D8 0
-S22 -S18 -D21 D8 0
-S23 -S18 -D22 D8 0
-S23 -S18 -D24 D8 0
-S24 -S18 -D23 D8 0
-S24 -S18 -D25 D8 0
-S25 -S18 -D24 D8 0
-S21 -S18 -N22 N8 0
-S22 -S18 -N23 N8 0
-S22 -S18 -N21 N8 0
-S23 -S18 -N22 N8 0
-S23 -S18 -N24 N8 0
-S24 -S18 -N23 N8 0
-S24 -S18 -N25 N8 0
-S25 -S18 -N24 N8 0
-S21 -S18 -G22 G8 0
-S22 -S18 -G23 G8 0
-S22 -S18 -G21 G8 0
-S23 -S18 -G22 G8 0
-S23 -S18 -G24 G8 0
-S24 -S18 -G23 G8 0
-S24 -S18 -G25 G8 0
-S25 -S18 -G24 G8 0
-D21 -D18 -S22 S8 0
-D22 -D18 -S23 S8 0
-D22 -D18 -S21 S8 0
-D23 -D18 -S22 S8 0
-D23 -D18 -S24 S8 0
-D24 -D18 -S23 S8 0
-D24 -D18 -S25 S8 0
-D25 -D18 -S24 S8 0
-D21 -D18 -B22 B8 0
-D22 -D18 -B23 B8 0
-D22 -D18 -B21 B8 0
-D23 -D18 -B22 B8 0
-D23 -D18 -B24 B8 0
-D24 -D18 -B23 B8 0
-D24 -D18 -B25 B8 0
-D25 -D18 -B24 B8 0
-D21 -D18 -N22 N8 0
-D22 -D18 -N23 N8 0
-D22 -D18 -N21 N8 0
-D23 -D18 -N22 N8 0
-D23 -D18 -N24 N8 0
-D24 -D18 -N23 N8 0
-D24 -D18 -N25 N8 0
-D25 -D18 -N24 N8 0
-D21 -D18 -G22 G8 0
-D22 -D18 -G23 G8 0
-D22 -D18 -G21 G8 0
-D23 -D18 -G22 G8 0
-D23 -D18 -G24 G8 0
-D24 -D18 -G23 G8 0
-D24 -D18 -G25 G8 0
-D25 -D18 -G24 G8 0
-N21 -N18 -S22 S8 0
-N22 -N18 -S23 S8 0
-N22 -N18 -S21 S8 0
-N23 -N18 -S22 S8 0
-N23 -N18 -S24 S8 0
-N24 -N18 -S23 S8 0
-N24 -N18 -S25 S8 0
-N25 -N18 -S24 S8 0
-N21 -N18 -D22 D8 0
-N22 -N18 -D23 D8 0
-N22 -N18 -D21 D8 0
-N23 -N18 -D22 D8 0
-N23 -N18 -D24 D8 0
-N24 -N18 -D23 D8 0
-N24 -N18 -D25 D8 0
-N25 -N18 -D24 D8 0
-N21 -N18 -B22 B8 0
-N22 -N18 -B23 B8 0
-N22 -N18 -B21 B8 0
-N23 -N18 -B22 B8 0
-N23 -N18 -B24 B8 0
-N24 -N18 -B23 B8 0
-N24 -N18 -B25 B8 0
-N25 -N18 -B24 B8 0
-N21 -N18 -G22 G8 0
-N22 -N18 -G23 G8 0
-N22 -N18 -G21 G8 0
-N23 -N18 -G22 G8 0
-N23 -N18 -G24 G8 0
-N24 -N18 -G23 G8 0
-N24 -N18 -G25 G8 0
-N25 -N18 -G24 G8 0
-G21 -G18 -S22 S8 0
-G22 -G18 -S23 S8 0
-G22 -G18 -S21 S8 0
-G23 -G18 -S22 S8 0
-G23 -G18 -S24 S8 0
-G24 -G18 -S23 S8 0
-G24 -G18 -S25 S8 0
-G25 -G18 -S24 S8 0
-G21 -G18 -D22 D8 0
-G22 -G18 -D23 D8 0
-G22 -G18 -D21 D8 0
-G23 -G18 -D22 D8 0
-G23 -G18 -D24 D8 0
-G24 -G18 -D23 D8 0
-G24 -G18 -D25 D8 0
-G25 -G18 -D24 D8 0
-G21 -G18 -N22 N8 0
-G22 -G18 -N23 N8 0
-G22 -G18 -N21 N8 0
-G23 -G18 -N22 N8 0
-G23 -G18 -N24 N8 0
-G24 -G18 -N23 N8 0
-G24 -G18 -N25 N8 0
-G25 -G18 -N24 N8 0
-G21 -G18 -B22 B8 0
-G22 -G18 -B23 B8 0
-G22 -G18 -B21 B8 0
-G23 -G18 -B22 B8 0
-G23 -G18 -B24 B8 0
-G24 -G18 -B23 B8 0
-G24 -G18 -B25 B8 0
-G25 -G18 -B24 B8 0
c The man who keeps the horse lives next to the man who smokes Dunhill (160)
-B21 -B9 -S22 S17 0
-B22 -B9 -S23 S17 0
-B22 -B9 -S21 S17 0
-B23 -B9 -S22 S17 0
-B23 -B9 -S24 S17 0
-B24 -B9 -S23 S17 0
-B24 -B9 -S25 S17 0
-B25 -B9 -S24 S17 0
-B21 -B9 -D22 D17 0
-B22 -B9 -D23 D17 0
-B22 -B9 -D21 D17 0
-B23 -B9 -D22 D17 0
-B23 -B9 -D24 D17 0
-B24 -B9 -D23 D17 0
-B24 -B9 -D25 D17 0
-B25 -B9 -D24 D17 0
-B21 -B9 -N22 N17 0
-B22 -B9 -N23 N17 0
-B22 -B9 -N21 N17 0
-B23 -B9 -N22 N17 0
-B23 -B9 -N24 N17 0
-B24 -B9 -N23 N17 0
-B24 -B9 -N25 N17 0
-B25 -B9 -N24 N17 0
-B21 -B9 -G22 G17 0
-B22 -B9 -G23 G17 0
-B22 -B9 -G21 G17 0
-B23 -B9 -G22 G17 0
-B23 -B9 -G24 G17 0
-B24 -B9 -G23 G17 0
-B24 -B9 -G25 G17 0
-B25 -B9 -G24 G17 0
-S21 -S9 -B22 B17 0
-S22 -S9 -B23 B17 0
-S22 -S9 -B21 B17 0
-S23 -S9 -B22 B17 0
-S23 -S9 -B24 B17 0
-S24 -S9 -B23 B17 0
-S24 -S9 -B25 B17 0
-S25 -S9 -B24 B17 0
-S21 -S9 -D22 D17 0
-S22 -S9 -D23 D17 0
-S22 -S9 -D21 D17 0
-S23 -S9 -D22 D17 0
-S23 -S9 -D24 D17 0
-S24 -S9 -D23 D17 0
-S24 -S9 -D25 D17 0
-S25 -S9 -D24 D17 0
-S21 -S9 -N22 N17 0
-S22 -S9 -N23 N17 0
-S22 -S9 -N21 N17 0
-S23 -S9 -N22 N17 0
-S23 -S9 -N24 N17 0
-S24 -S9 -N23 N17 0
-S24 -S9 -N25 N17 0
-S25 -S9 -N24 N17 0
-S21 -S9 -G22 G17 0
-S22 -S9 -G23 G17 0
-S22 -S9 -G21 G17 0
-S23 -S9 -G22 G17 0
-S23 -S9 -G24 G17 0
-S24 -S9 -G23 G17 0
-S24 -S9 -G25 G17 0
-S25 -S9 -G24 G17 0
-D21 -D9 -S22 S17 0
-D22 -D9 -S23 S17 0
-D22 -D9 -S21 S17 0
-D23 -D9 -S22 S17 0
-D23 -D9 -S24 S17 0
-D24 -D9 -S23 S17 0
-D24 -D9 -S25 S17 0
-D25 -D9 -S24 S17 0
-D21 -D9 -B22 B17 0
-D22 -D9 -B23 B17 0
-D22 -D9 -B21 B17 0
-D23 -D9 -B22 B17 0
-D23 -D9 -B24 B17 0
-D24 -D9 -B23 B17 0
-D24 -D9 -B25 B17 0
-D25 -D9 -B24 B17 0
-D21 -D9 -N22 N17 0
-D22 -D9 -N23 N17 0
-D22 -D9 -N21 N17 0
-D23 -D9 -N22 N17 0
-D23 -D9 -N24 N17 0
-D24 -D9 -N23 N17 0
-D24 -D9 -N25 N17 0
-D25 -D9 -N24 N17 0
-D21 -D9 -G22 G17 0
-D22 -D9 -G23 G17 0
-D22 -D9 -G21 G17 0
-D23 -D9 -G22 G17 0
-D23 -D9 -G24 G17 0
-D24 -D9 -G23 G17 0
-D24 -D9 -G25 G17 0
-D25 -D9 -G24 G17 0
-N21 -N9 -S22 S17 0
-N22 -N9 -S23 S17 0
-N22 -N9 -S21 S17 0
-N23 -N9 -S22 S17 0
-N23 -N9 -S24 S17 0
-N24 -N9 -S23 S17 0
-N24 -N9 -S25 S17 0
-N25 -N9 -S24 S17 0
-N21 -N9 -D22 D17 0
-N22 -N9 -D23 D17 0
-N22 -N9 -D21 D17 0
-N23 -N9 -D22 D17 0
-N23 -N9 -D24 D17 0
-N24 -N9 -D23 D17 0
-N24 -N9 -D25 D17 0
-N25 -N9 -D24 D17 0
-N21 -N9 -B22 B17 0
-N22 -N9 -B23 B17 0
-N22 -N9 -B21 B17 0
-N23 -N9 -B22 B17 0
-N23 -N9 -B24 B17 0
-N24 -N9 -B23 B17 0
-N24 -N9 -B25 B17 0
-N25 -N9 -B24 B17 0
-N21 -N9 -G22 G17 0
-N22 -N9 -G23 G17 0
-N22 -N9 -G21 G17 0
-N23 -N9 -G22 G17 0
-N23 -N9 -G24 G17 0
-N24 -N9 -G23 G17 0
-N24 -N9 -G25 G17 0
-N25 -N9 -G24 G17 0
-G21 -G9 -S22 S17 0
-G22 -G9 -S23 S17 0
-G22 -G9 -S21 S17 0
-G23 -G9 -S22 S17 0
-G23 -G9 -S24 S17 0
-G24 -G9 -S23 S17 0
-G24 -G9 -S25 S17 0
-G25 -G9 -S24 S17 0
-G21 -G9 -D22 D17 0
-G22 -G9 -D23 D17 0
-G22 -G9 -D21 D17 0
-G23 -G9 -D22 D17 0
-G23 -G9 -D24 D17 0
-G24 -G9 -D23 D17 0
-G24 -G9 -D25 D17 0
-G25 -G9 -D24 D17 0
-G21 -G9 -N22 N17 0
-G22 -G9 -N23 N17 0
-G22 -G9 -N21 N17 0
-G23 -G9 -N22 N17 0
-G23 -G9 -N24 N17 0
-G24 -G9 -N23 N17 0
-G24 -G9 -N25 N17 0
-G25 -G9 -N24 N17 0
-G21 -G9 -B22 B17 0
-G22 -G9 -B23 B17 0
-G22 -G9 -B21 B17 0
-G23 -G9 -B22 B17 0
-G23 -G9 -B24 B17 0
-G24 -G9 -B23 B17 0
-G24 -G9 -B25 B17 0
-G25 -G9 -B24 B17 0
c The owner who smokes Bluemasters drinks beer (5)
-B19 B14 0
-S19 S14 0
-D19 D14 0
-N19 N14 0
-G19 G14 0
c The German smokes Prince (1)
G20 0
c The Norwegian lives next to the blue house (20)
-B21 -B5 N22 0
-B22 -B5 N21 N23 0
-B23 -B5 N22 N24 0
-B24 -B5 N23 N25 0
-B25 -B5 N24 0
-S21 -S5 N22 0
-S22 -S5 N21 N23 0
-S23 -S5 N22 N24 0
-S24 -S5 N23 N25 0
-S25 -S5 N24 0
-D21 -D5 N22 0
-D22 -D5 N21 N23 0
-D23 -D5 N22 N24 0
-D24 -D5 N23 N25 0
-D25 -D5 N24 0
-G21 -G5 N22 0
-G22 -G5 N21 N23 0
-G23 -G5 N22 N24 0
-G24 -G5 N23 N25 0
-G25 -G5 N24 0
c The man who smokes Blends has a neighbor who drinks water (100)
-B21 -B18 -S15 S22 0
-B22 -B18 -S15 S21 S23 0
-B23 -B18 -S15 S22 S24 0
-B24 -B18 -S15 S23 S25 0
-B25 -B18 -S15 S24 0
-B21 -B18 -D15 D22 0
-B22 -B18 -D15 D21 D23 0
-B23 -B18 -D15 D22 D24 0
-B24 -B18 -D15 D23 D25 0
-B25 -B18 -D15 D24 0
-B21 -B18 -N15 N22 0
-B22 -B18 -N15 N21 N23 0
-B23 -B18 -N15 N22 N24 0
-B24 -B18 -N15 N23 N25 0
-B25 -B18 -N15 N24 0
-B21 -B18 -G15 G22 0
-B22 -B18 -G15 G21 G23 0
-B23 -B18 -G15 G22 G24 0
-B24 -B18 -G15 G23 G25 0
-B25 -B18 -G15 G24 0
-S21 -S18 -B15 B22 0
-S22 -S18 -B15 B21 B23 0
-S23 -S18 -B15 B22 B24 0
-S24 -S18 -B15 B23 B25 0
-S25 -S18 -B15 B24 0
-S21 -S18 -D15 D22 0
-S22 -S18 -D15 D21 D23 0
-S23 -S18 -D15 D22 D24 0
-S24 -S18 -D15 D23 D25 0
-S25 -S18 -D15 D24 0
-S21 -S18 -N15 N22 0
-S22 -S18 -N15 N21 N23 0
-S23 -S18 -N15 N22 N24 0
-S24 -S18 -N15 N23 N25 0
-S25 -S18 -N15 N24 0
-S21 -S18 -G15 G22 0
-S22 -S18 -G15 G21 G23 0
-S23 -S18 -G15 G22 G24 0
-S24 -S18 -G15 G23 G25 0
-S25 -S18 -G15 G24 0
-D21 -D18 -S15 S22 0
-D22 -D18 -S15 S21 S23 0
-D23 -D18 -S15 S22 S24 0
-D24 -D18 -S15 S23 S25 0
-D25 -D18 -S15 S24 0
-D21 -D18 -B15 B22 0
-D22 -D18 -B15 B21 B23 0
-D23 -D18 -B15 B22 B24 0
-D24 -D18 -B15 B23 B25 0
-D25 -D18 -B15 B24 0
-D21 -D18 -N15 N22 0
-D22 -D18 -N15 N21 N23 0
-D23 -D18 -N15 N22 N24 0
-D24 -D18 -N15 N23 N25 0
-D25 -D18 -N15 N24 0
-D21 -D18 -G15 G22 0
-D22 -D18 -G15 G21 G23 0
-D23 -D18 -G15 G22 G24 0
-D24 -D18 -G15 G23 G25 0
-D25 -D18 -G15 G24 0
-N21 -N18 -S15 S22 0
-N22 -N18 -S15 S21 S23 0
-N23 -N18 -S15 S22 S24 0
-N24 -N18 -S15 S23 S25 0
-N25 -N18 -S15 S24 0
-N21 -N18 -D15 D22 0
-N22 -N18 -D15 D21 D23 0
-N23 -N18 -D15 D22 D24 0
-N24 -N18 -D15 D23 D25 0
-N25 -N18 -D15 D24 0
-N21 -N18 -B15 B22 0
-N22 -N18 -B15 B21 B23 0
-N23 -N18 -B15 B22 B24 0
-N24 -N18 -B15 B23 B25 0
-N25 -N18 -B15 B24 0
-N21 -N18 -G15 G22 0
-N22 -N18 -G15 G21 G23 0
-N23 -N18 -G15 G22 G24 0
-N24 -N18 -G15 G23 G25 0
-N25 -N18 -G15 G24 0
-G21 -G18 -S15 S22 0
-G22 -G18 -S15 S21 S23 0
-G23 -G18 -S15 S22 S24 0
-G24 -G18 -S15 S23 S25 0
-G25 -G18 -S15 S24 0
-G21 -G18 -D15 D22 0
-G22 -G18 -D15 D21 D23 0
-G23 -G18 -D15 D22 D24 0
-G24 -G18 -D15 D23 D25 0
-G25 -G18 -D15 D24 0
-G21 -G18 -N15 N22 0
-G22 -G18 -N15 N21 N23 0
-G23 -G18 -N15 N22 N24 0
-G24 -G18 -N15 N23 N25 0
-G25 -G18 -N15 N24 0
-G21 -G18 -B15 B22 0
-G22 -G18 -B15 B21 B23 0
-G23 -G18 -B15 B22 B24 0
-G24 -G18 -B15 B23 B25 0
-G25 -G18 -B15 B24 0
c Constraints
c Each nationality can only own one house (50)
-B21 -B22 0
-B21 -B23 0
-B21 -B24 0
-B21 -B25 0
-B22 -B23 0
-B22 -B24 0
-B22 -B25 0
-B23 -B24 0
-B23 -B25 0
-B24 -B25 0
-S21 -S22 0
-S21 -S23 0
-S21 -S24 0
-S21 -S25 0
-S22 -S23 0
-S22 -S24 0
-S22 -S25 0
-S23 -S24 0
-S23 -S25 0
-S24 -S25 0
-D21 -D22 0
-D21 -D23 0
-D21 -D24 0
-D21 -D25 0
-D22 -D23 0
-D22 -D24 0
-D22 -D25 0
-D23 -D24 0
-D23 -D25 0
-D24 -D25 0
-N21 -N22 0
-N21 -N23 0
-N21 -N24 0
-N21 -N25 0
-N22 -N23 0
-N22 -N24 0
-N22 -N25 0
-N23 -N24 0
-N23 -N25 0
-N24 -N25 0
-G21 -G22 0
-G21 -G23 0
-G21 -G24 0
-G21 -G25 0
-G22 -G23 0
-G22 -G24 0
-G22 -G25 0
-G23 -G24 0
-G23 -G25 0
-G24 -G25 0
c Each house can own by at most 1 person (50)
-B21 -S21 0
-B21 -D21 0
-B21 -N21 0
-B21 -G21 0
-S21 -D21 0
-S21 -N21 0
-S21 -G21 0
-D21 -N21 0
-D21 -G21 0
-N21 -G21 0
-B22 -S22 0
-B22 -D22 0
-B22 -N22 0
-B22 -G22 0
-S22 -D22 0
-S22 -N22 0
-S22 -G22 0
-D22 -N22 0
-D22 -G22 0
-N22 -G22 0
-B23 -S23 0
-B23 -D23 0
-B23 -N23 0
-B23 -G23 0
-S23 -D23 0
-S23 -N23 0
-S23 -G23 0
-D23 -N23 0
-D23 -G23 0
-N23 -G23 0
-B24 -S24 0
-B24 -D24 0
-B24 -N24 0
-B24 -G24 0
-S24 -D24 0
-S24 -N24 0
-S24 -G24 0
-D24 -N24 0
-D24 -G24 0
-N24 -G24 0
-B25 -S25 0
-B25 -D25 0
-B25 -N25 0
-B25 -G25 0
-S25 -D25 0
-S25 -N25 0
-S25 -G25 0
-D25 -N25 0
-D25 -G25 0
-N25 -G25 0
c Each nationality's house can only be one of the colors (50)
-B1 -B2 0
-B1 -B3 0
-B1 -B4 0
-B1 -B5 0
-B2 -B3 0
-B2 -B4 0
-B2 -B5 0
-B3 -B4 0
-B3 -B5 0
-B4 -B5 0
-S1 -S2 0
-S1 -S3 0
-S1 -S4 0
-S1 -S5 0
-S2 -S3 0
-S2 -S4 0
-S2 -S5 0
-S3 -S4 0
-S3 -S5 0
-S4 -S5 0
-D1 -D2 0
-D1 -D3 0
-D1 -D4 0
-D1 -D5 0
-D2 -D3 0
-D2 -D4 0
-D2 -D5 0
-D3 -D4 0
-D3 -D5 0
-D4 -D5 0
-N1 -N2 0
-N1 -N3 0
-N1 -N4 0
-N1 -N5 0
-N2 -N3 0
-N2 -N4 0
-N2 -N5 0
-N3 -N4 0
-N3 -N5 0
-N4 -N5 0
-G1 -G2 0
-G1 -G3 0
-G1 -G4 0
-G1 -G5 0
-G2 -G3 0
-G2 -G4 0
-G2 -G5 0
-G3 -G4 0
-G3 -G5 0
-G4 -G5 0
c Each house color can be owned by at most one owner (50)
-B1 -S1 0
-B1 -D1 0
-B1 -N1 0
-B1 -G1 0
-S1 -D1 0
-S1 -N1 0
-S1 -G1 0
-D1 -N1 0
-D1 -G1 0
-N1 -G1 0
-B2 -S2 0
-B2 -D2 0
-B2 -N2 0
-B2 -G2 0
-S2 -D2 0
-S2 -N2 0
-S2 -G2 0
-D2 -N2 0
-D2 -G2 0
-N2 -G2 0
-B3 -S3 0
-B3 -D3 0
-B3 -N3 0
-B3 -G3 0
-S3 -D3 0
-S3 -N3 0
-S3 -G3 0
-D3 -N3 0
-D3 -G3 0
-N3 -G3 0
-B4 -S4 0
-B4 -D4 0
-B4 -N4 0
-B4 -G4 0
-S4 -D4 0
-S4 -N4 0
-S4 -G4 0
-D4 -N4 0
-D4 -G4 0
-N4 -G4 0
-B5 -S5 0
-B5 -D5 0
-B5 -N5 0
-B5 -G5 0
-S5 -D5 0
-S5 -N5 0
-S5 -G5 0
-D5 -N5 0
-D5 -G5 0
-N5 -G5 0
c Each nationality can only own one pet (50)
-B6 -B7 0
-B6 -B8 0
-B6 -B9 0
-B6 -B10 0
-B7 -B8 0
-B7 -B9 0
-B7 -B10 0
-B8 -B9 0
-B8 -B10 0
-B9 -B10 0
-S6 -S7 0
-S6 -S8 0
-S6 -S9 0
-S6 -S10 0
-S7 -S8 0
-S7 -S9 0
-S7 -S10 0
-S8 -S9 0
-S8 -S10 0
-S9 -S10 0
-D6 -D7 0
-D6 -D8 0
-D6 -D9 0
-D6 -D10 0
-D7 -D8 0
-D7 -D9 0
-D7 -D10 0
-D8 -D9 0
-D8 -D10 0
-D9 -D10 0
-N6 -N7 0
-N6 -N8 0
-N6 -N9 0
-N6 -N10 0
-N7 -N8 0
-N7 -N9 0
-N7 -N10 0
-N8 -N9 0
-N8 -N10 0
-N9 -N10 0
-G6 -G7 0
-G6 -G8 0
-G6 -G9 0
-G6 -G10 0
-G7 -G8 0
-G7 -G9 0
-G7 -G10 0
-G8 -G9 0
-G8 -G10 0
-G9 -G10 0
c Each pet can have at most one owner (50)
-B6 -S6 0
-B6 -D6 0
-B6 -N6 0
-B6 -G6 0
-S6 -D6 0
-S6 -N6 0
-S6 -G6 0
-D6 -N6 0
-D6 -G6 0
-N6 -G6 0
-B7 -S7 0
-B7 -D7 0
-B7 -N7 0
-B7 -G7 0
-S7 -D7 0
-S7 -N7 0
-S7 -G7 0
-D7 -N7 0
-D7 -G7 0
-N7 -G7 0
-B8 -S8 0
-B8 -D8 0
-B8 -N8 0
-B8 -G8 0
-S8 -D8 0
-S8 -N8 0
-S8 -G8 0
-D8 -N8 0
-D8 -G8 0
-N8 -G8 0
-B9 -S9 0
-B9 -D9 0
-B9 -N9 0
-B9 -G9 0
-S9 -D9 0
-S9 -N9 0
-S9 -G9 0
-D9 -N9 0
-D9 -G9 0
-N9 -G9 0
-B10 -S10 0
-B10 -D10 0
-B10 -N10 0
-B10 -G10 0
-S10 -D10 0
-S10 -N10 0
-S10 -G10 0
-D10 -N10 0
-D10 -G10 0
-N10 -G10 0
c Each nationality can only drink one type of drinks (50)
-B11 -B12 0
-B11 -B13 0
-B11 -B14 0
-B11 -B15 0
-B12 -B13 0
-B12 -B14 0
-B12 -B15 0
-B13 -B14 0
-B13 -B15 0
-B14 -B15 0
-S11 -S12 0
-S11 -S13 0
-S11 -S14 0
-S11 -S15 0
-S12 -S13 0
-S12 -S14 0
-S12 -S15 0
-S13 -S14 0
-S13 -S15 0
-S14 -S15 0
-D11 -D12 0
-D11 -D13 0
-D11 -D14 0
-D11 -D15 0
-D12 -D13 0
-D12 -D14 0
-D12 -D15 0
-D13 -D14 0
-D13 -D15 0
-D14 -D15 0
-N11 -N12 0
-N11 -N13 0
-N11 -N14 0
-N11 -N15 0
-N12 -N13 0
-N12 -N14 0
-N12 -N15 0
-N13 -N14 0
-N13 -N15 0
-N14 -N15 0
-G11 -G12 0
-G11 -G13 0
-G11 -G14 0
-G11 -G15 0
-G12 -G13 0
-G12 -G14 0
-G12 -G15 0
-G13 -G14 0
-G13 -G15 0
-G14 -G15 0
c Each type of drink can be drank by at most one person (50)
-B11 -S11 0
-B11 -D11 0
-B11 -N11 0
-B11 -G11 0
-S11 -D11 0
-S11 -N11 0
-S11 -G11 0
-D11 -N11 0
-D11 -G11 0
-N11 -G11 0
-B12 -S12 0
-B12 -D12 0
-B12 -N12 0
-B12 -G12 0
-S12 -D12 0
-S12 -N12 0
-S12 -G12 0
-D12 -N12 0
-D12 -G12 0
-N12 -G12 0
-B13 -S13 0
-B13 -D13 0
-B13 -N13 0
-B13 -G13 0
-S13 -D13 0
-S13 -N13 0
-S13 -G13 0
-D13 -N13 0
-D13 -G13 0
-N13 -G13 0
-B14 -S14 0
-B14 -D14 0
-B14 -N14 0
-B14 -G14 0
-S14 -D14 0
-S14 -N14 0
-S14 -G14 0
-D14 -N14 0
-D14 -G14 0
-N14 -G14 0
-B15 -S15 0
-B15 -D15 0
-B15 -N15 0
-B15 -G15 0
-S15 -D15 0
-S15 -N15 0
-S15 -G15 0
-D15 -N15 0
-D15 -G15 0
-N15 -G15 0
c Each nationality smokes at most one type of cigarette (50)
-B16 -B17 0
-B16 -B18 0
-B16 -B19 0
-B16 -B20 0
-B17 -B18 0
-B17 -B19 0
-B17 -B20 0
-B18 -B19 0
-B18 -B20 0
-B19 -B20 0
-S16 -S17 0
-S16 -S18 0
-S16 -S19 0
-S16 -S20 0
-S17 -S18 0
-S17 -S19 0
-S17 -S20 0
-S18 -S19 0
-S18 -S20 0
-S19 -S20 0
-D16 -D17 0
-D16 -D18 0
-D16 -D19 0
-D16 -D20 0
-D17 -D18 0
-D17 -D19 0
-D17 -D20 0
-D18 -D19 0
-D18 -D20 0
-D19 -D20 0
-N16 -N17 0
-N16 -N18 0
-N16 -N19 0
-N16 -N20 0
-N17 -N18 0
-N17 -N19 0
-N17 -N20 0
-N18 -N19 0
-N18 -N20 0
-N19 -N20 0
-G16 -G17 0
-G16 -G18 0
-G16 -G19 0
-G16 -G20 0
-G17 -G18 0
-G17 -G19 0
-G17 -G20 0
-G18 -G19 0
-G18 -G20 0
-G19 -G20 0
c Each cigarette smoked by at most one person (50)
-B16 -S16 0
-B16 -D16 0
-B16 -N16 0
-B16 -G16 0
-S16 -D16 0
-S16 -N16 0
-S16 -G16 0
-D16 -N16 0
-D16 -G16 0
-N16 -G16 0
-B17 -S17 0
-B17 -D17 0
-B17 -N17 0
-B17 -G17 0
-S17 -D17 0
-S17 -N17 0
-S17 -G17 0
-D17 -N17 0
-D17 -G17 0
-N17 -G17 0
-B18 -S18 0
-B18 -D18 0
-B18 -N18 0
-B18 -G18 0
-S18 -D18 0
-S18 -N18 0
-S18 -G18 0
-D18 -N18 0
-D18 -G18 0
-N18 -G18 0
-B19 -S19 0
-B19 -D19 0
-B19 -N19 0
-B19 -G19 0
-S19 -D19 0
-S19 -N19 0
-S19 -G19 0
-D19 -N19 0
-D19 -G19 0
-N19 -G19 0
-B20 -S20 0
-B20 -D20 0
-B20 -N20 0
-B20 -G20 0
-S20 -D20 0
-S20 -N20 0
-S20 -G20 0
-D20 -N20 0
-D20 -G20 0
-N20 -G20 0
